
27 19 2 27 2 6 2 27 27 28 26 28 10 5 28 7 5 10 27 27 27 24 5 24 10 27 27 19 26 2 19 19 26 24 27 6 8 8 24 2 7 8 6 26 8 19 8 2 19 10 24 24 24 24 8 6 7 8 27 7 26 5 7 8 8 6 5 19 28 6 7 6 19 8 5 10 10 5 8 24 10 5 26 7 26 10 6 5 27 7 28 6 7 7 2 8 28 6 2 28 28 2 7 7 26 24 26 24 27 8 19 26 27 6 6 8 28 7 28 8 26 7 28 19 26 24 2 28 26 28 28 24 7 10 5 26 8 8 28 10 6 27 28 7 7 5 24 2 27 7 24 28 10 24 8 28 2 2 8 8 10 27 10 24 5 27 5 26 8 2 5 8 19 10 26 2 24 10 26 10 5 2 2 19 6 8 28 10 27 24 2 2 6 6 7 6 7 2 10 19 
